computational_data/solutions/ER_n30_p020_s3.sol
Optimal - objective value 11.00000000
      0 r_0                         1                       1
      3 r_3                         1                       1
     13 r_13                        1                       1
     14 r_14                        1                       1
     28 r_28                        1                       1
     38 b_8                         1                       1
     40 b_10                        1                       1
     50 b_20                        1                       1
     51 b_21                        1                       1
     52 b_22                        1                       1
     55 b_25                        1                       1
